50
400 400
1 309 687
2 305 979
3 299 325
4 298 795
5 275 192
6 274 851
7 270 46
8 267 503
9 256 608
10 249 5
11 248 342
12 230 519
13 227 782
14 226 53
15 225 165
16 218 549
17 211 118
18 210 127
19 206 390
20 188 263
21 187 186
22 182 1000
23 160 540
24 151 713
25 142 123
26 142 949
27 138 767
28 133 577
29 116 930
30 109 164
31 108 640
32 103 58
33 103 19
34 96 533
35 83 110
36 81 720
37 79 575
38 79 499
39 70 833
40 67 288
41 60 484
42 57 265
43 57 279
44 57 324
45 55 844
46 53 135
47 53 891
48 52 799
49 50 778
50 44 934
